12
1 7
2 8
3 1
4 5
5 5
6 1
7 10
8 8
9 1
10 3
11 6
39
0 1 20
1 0 20
0 2 15
2 0 15
0 3 29
3 0 29
0 4 26
4 0 26
0 5 87
5 0 87
0 6 86
6 0 86
0 7 84
7 0 84
0 8 36
8 0 36
0 9 26
9 0 26
0 10 21
10 0 21
0 11 42
11 0 42
1 2 12
1 3 48
1 4 97
1 5 69
1 8 20
2 3 76
2 4 71
2 7 44
2 8 80
2 9 60
2 10 8
3 4 94
3 11 81
4 9 96
5 7 1
7 11 90
8 10 25
